\ LP format - for model browsing. Use MPS format to capture full model detail.
Minimize
  I95(1)
Subject To
 c0: B0(11) = 1
 c1: B1(11) = 1
 c2: B2(11) = 1
 c3: B3(13) = 1
 c4: B4(7) = 1
 c5: B5(11) = 1
 c6: B6(13) = 1
 c7: B7(11) = 1
 c8: B8(7) = 1
 c9: B9(11) = 1
 c10: B10(12) = 1
 c11: B11(8) = 1
 c12: B12(12) = 1
 c13: B13(12) = 1
 c14: B14(14) = 1
 c15: B15(12) = 1
 c16: B16(12) = 1
 c17: B17(12) = 1
 c18: B18(14) = 1
 c19: B19(11) = 1
 c20: B20(11) = 1
 c21: B21(11) = 1
 c22: B22(11) = 1
 c23: B23(11) = 1
 c24: - 4.32e+06 B0(11) + I71(11) <= 0
 c25: - 4.32e+06 B1(11) + I72(12) <= 0
 c26: - 4.32e+06 B2(11) + I73(12) <= 0
 c27: - 4.32e+06 B3(13) + I74(14) <= 0
 c28: - 4.32e+06 B4(7) + I75(8) <= 0
 c29: - 4.32e+06 B5(11) + I76(11) <= 0
 c30: - 4.32e+06 B6(13) + I77(14) <= 0
 c31: - 4.32e+06 B7(11) + I78(12) <= 0
 c32: - 4.32e+06 B8(7) + I79(8) <= 0
 c33: - 4.32e+06 B9(11) + I80(12) <= 0
 c34: - 4.32e+06 B10(12) + I81(11) <= 0
 c35: - 4.32e+06 B11(8) + I82(8) <= 0
 c36: - 4.32e+06 B12(12) + I83(12) <= 0
 c37: - 4.32e+06 B13(12) + I84(12) <= 0
 c38: - 4.32e+06 B14(14) + I85(14) <= 0
 c39: - 4.32e+06 B15(12) + I86(11) <= 0
 c40: - 4.32e+06 B16(12) + I87(12) <= 0
 c41: - 4.32e+06 B17(12) + I88(12) <= 0
 c42: - 4.32e+06 B18(14) + I89(14) <= 0
 c43: - 4.32e+06 B19(11) + I90(11) <= 0
 c44: - 4.32e+06 B20(11) + I91(12) <= 0
 c45: - 4.32e+06 B21(11) + I92(12) <= 0
 c46: - 4.32e+06 B22(11) + I93(12) <= 0
 c47: - 4.32e+06 B23(11) + I94(12) <= 0
 c48: - 1440 B0(11) - I71(11) + I72(12) >= 0
 c49: - 2880 B1(11) - I72(12) + I73(12) >= 0
 c50: - 2880 B2(11) - I73(12) + I74(14) >= 0
 c51: - 1440 B3(13) - I74(14) + I75(8) >= 0
 c52: - 1440 B5(11) - I76(11) + I77(14) >= 0
 c53: - 1440 B6(13) - I77(14) + I78(12) >= 0
 c54: - 1440 B7(11) - I78(12) + I79(8) >= 0
 c55: - 1440 B8(7) - I79(8) + I80(12) >= 0
 c56: - 1440 B10(12) - I81(11) + I82(8) >= 0
 c57: - 2880 B11(8) - I82(8) + I83(12) >= 0
 c58: - 4320 B12(12) - I83(12) + I84(12) >= 0
 c59: - 1440 B13(12) - I84(12) + I85(14) >= 0
 c60: - 1440 B15(12) - I86(11) + I87(12) >= 0
 c61: - 2880 B16(12) - I87(12) + I88(12) >= 0
 c62: - 2880 B17(12) - I88(12) + I89(14) >= 0
 c63: - 2880 B19(11) - I90(11) + I91(12) >= 0
 c64: - 1440 B20(11) - I91(12) + I92(12) >= 0
 c65: - 1440 B21(11) - I92(12) + I93(12) >= 0
 c66: - 1440 B22(11) - I93(12) + I94(12) >= 0
 c67: - 4.32e+06 B0(11) - 4.32e+06 B5(11) - 4.32e+06 B24(2) + I71(11)
   - I76(11) >= -1.2957922e+07
 c68: - 4.32e+06 B0(11) - 4.32e+06 B5(11) + 4.32e+06 B24(2) - I71(11)
   + I76(11) >= -8.638412e+06
 c69: - 4.32e+06 B0(11) - 4.32e+06 B10(12) - 4.32e+06 B25(2) + I71(11)
   - I81(11) >= -1.2958461e+07
 c70: - 4.32e+06 B0(11) - 4.32e+06 B10(12) + 4.32e+06 B25(2) - I71(11)
   + I81(11) >= -8.637969e+06
 c71: - 4.32e+06 B0(11) - 4.32e+06 B15(12) - 4.32e+06 B26(2) + I71(11)
   - I86(11) >= -1.2958095e+07
 c72: - 4.32e+06 B0(11) - 4.32e+06 B15(12) + 4.32e+06 B26(2) - I71(11)
   + I86(11) >= -8.638455e+06
 c73: - 4.32e+06 B0(11) - 4.32e+06 B19(11) - 4.32e+06 B27(2) + I71(11)
   - I90(11) >= -1.2956815e+07
 c74: - 4.32e+06 B0(11) - 4.32e+06 B19(11) + 4.32e+06 B27(2) - I71(11)
   + I90(11) >= -8.637768e+06
 c75: - 4.32e+06 B1(11) - 4.32e+06 B9(11) - 4.32e+06 B28(2) + I72(12)
   - I80(12) >= -1.2957632e+07
 c76: - 4.32e+06 B1(11) - 4.32e+06 B9(11) + 4.32e+06 B28(2) - I72(12)
   + I80(12) >= -8.637042e+06
 c77: - 4.32e+06 B1(11) - 4.32e+06 B12(12) - 4.32e+06 B29(2) + I72(12)
   - I83(12) >= -1.2955563e+07
 c78: - 4.32e+06 B1(11) - 4.32e+06 B12(12) + 4.32e+06 B29(2) - I72(12)
   + I83(12) >= -8.636699e+06
 c79: - 4.32e+06 B1(11) - 4.32e+06 B17(12) - 4.32e+06 B30(2) + I72(12)
   - I88(12) >= -1.2956678e+07
 c80: - 4.32e+06 B1(11) - 4.32e+06 B17(12) + 4.32e+06 B30(2) - I72(12)
   + I88(12) >= -8.637059e+06
 c81: - 4.32e+06 B1(11) - 4.32e+06 B22(11) - 4.32e+06 B31(2) + I72(12)
   - I93(12) >= -1.2958454e+07
 c82: - 4.32e+06 B1(11) - 4.32e+06 B22(11) + 4.32e+06 B31(2) - I72(12)
   + I93(12) >= -8.636825e+06
 c83: - 4.32e+06 B2(11) - 4.32e+06 B7(11) - 4.32e+06 B32(2) + I73(12)
   - I78(12) >= -1.2958051e+07
 c84: - 4.32e+06 B2(11) - 4.32e+06 B7(11) + 4.32e+06 B32(2) - I73(12)
   + I78(12) >= -8.636856e+06
 c85: - 4.32e+06 B2(11) - 4.32e+06 B13(12) - 4.32e+06 B33(2) + I73(12)
   - I84(12) >= -1.2958513e+07
 c86: - 4.32e+06 B2(11) - 4.32e+06 B13(12) + 4.32e+06 B33(2) - I73(12)
   + I84(12) >= -8.636926e+06
 c87: - 4.32e+06 B2(11) - 4.32e+06 B16(12) - 4.32e+06 B34(2) + I73(12)
   - I87(12) >= -1.2957045e+07
 c88: - 4.32e+06 B2(11) - 4.32e+06 B16(12) + 4.32e+06 B34(2) - I73(12)
   + I87(12) >= -8.636572e+06
 c89: - 4.32e+06 B2(11) - 4.32e+06 B20(11) - 4.32e+06 B35(2) + I73(12)
   - I91(12) >= -1.2958218e+07
 c90: - 4.32e+06 B2(11) - 4.32e+06 B20(11) + 4.32e+06 B35(2) - I73(12)
   + I91(12) >= -8.636965e+06
 c91: - 4.32e+06 B3(13) - 4.32e+06 B6(13) - 4.32e+06 B36(2) + I74(14)
   - I77(14) >= -1.2958393e+07
 c92: - 4.32e+06 B3(13) - 4.32e+06 B6(13) + 4.32e+06 B36(2) - I74(14)
   + I77(14) >= -8.638276e+06
 c93: - 4.32e+06 B3(13) - 4.32e+06 B14(14) - 4.32e+06 B37(2) + I74(14)
   - I85(14) >= -1.2958497e+07
 c94: - 4.32e+06 B3(13) - 4.32e+06 B14(14) + 4.32e+06 B37(2) - I74(14)
   + I85(14) >= -8.637891e+06
 c95: - 4.32e+06 B3(13) - 4.32e+06 B18(14) - 4.32e+06 B38(2) + I74(14)
   - I89(14) >= -1.2956957e+07
 c96: - 4.32e+06 B3(13) - 4.32e+06 B18(14) + 4.32e+06 B38(2) - I74(14)
   + I89(14) >= -8.638268e+06
 c97: - 4.32e+06 B3(13) - 4.32e+06 B21(11) - 4.32e+06 B39(2) + I74(14)
   - I92(12) >= -1.2957928e+07
 c98: - 4.32e+06 B3(13) - 4.32e+06 B21(11) + 4.32e+06 B39(2) - I74(14)
   + I92(12) >= -8.638423e+06
 c99: - 4.32e+06 B3(13) - 4.32e+06 B23(11) - 4.32e+06 B40(2) + I74(14)
   - I94(12) >= -1.2958484e+07
 c100: - 4.32e+06 B3(13) - 4.32e+06 B23(11) + 4.32e+06 B40(2) - I74(14)
   + I94(12) >= -8.638412e+06
 c101: - 4.32e+06 B4(7) - 4.32e+06 B8(7) - 4.32e+06 B41(2) + I75(8)
   - I79(8) >= -1.2958109e+07
 c102: - 4.32e+06 B4(7) - 4.32e+06 B8(7) + 4.32e+06 B41(2) - I75(8)
   + I79(8) >= -8.63839e+06
 c103: - 4.32e+06 B4(7) - 4.32e+06 B11(8) - 4.32e+06 B42(2) + I75(8)
   - I82(8) >= -1.2956951e+07
 c104: - 4.32e+06 B4(7) - 4.32e+06 B11(8) + 4.32e+06 B42(2) - I75(8)
   + I82(8) >= -8.637792e+06
 c105: - 4.32e+06 B5(11) - 4.32e+06 B10(12) - 4.32e+06 B43(2) + I76(11)
   - I81(11) >= -1.2958239e+07
 c106: - 4.32e+06 B5(11) - 4.32e+06 B10(12) + 4.32e+06 B43(2) - I76(11)
   + I81(11) >= -8.638339e+06
 c107: - 4.32e+06 B5(11) - 4.32e+06 B15(12) - 4.32e+06 B44(2) + I76(11)
   - I86(11) >= -1.2957183e+07
 c108: - 4.32e+06 B5(11) - 4.32e+06 B15(12) + 4.32e+06 B44(2) - I76(11)
   + I86(11) >= -8.638308e+06
 c109: - 4.32e+06 B5(11) - 4.32e+06 B19(11) - 4.32e+06 B45(2) + I76(11)
   - I90(11) >= -1.2956853e+07
 c110: - 4.32e+06 B5(11) - 4.32e+06 B19(11) + 4.32e+06 B45(2) - I76(11)
   + I90(11) >= -8.637889e+06
 c111: - 4.32e+06 B6(13) - 4.32e+06 B14(14) - 4.32e+06 B46(2) + I77(14)
   - I85(14) >= -1.2958291e+07
 c112: - 4.32e+06 B6(13) - 4.32e+06 B14(14) + 4.32e+06 B46(2) - I77(14)
   + I85(14) >= -8.638451e+06
 c113: - 4.32e+06 B6(13) - 4.32e+06 B18(14) - 4.32e+06 B47(2) + I77(14)
   - I89(14) >= -1.2956925e+07
 c114: - 4.32e+06 B6(13) - 4.32e+06 B18(14) + 4.32e+06 B47(2) - I77(14)
   + I89(14) >= -8.638197e+06
 c115: - 4.32e+06 B6(13) - 4.32e+06 B21(11) - 4.32e+06 B48(2) + I77(14)
   - I92(12) >= -1.2958065e+07
 c116: - 4.32e+06 B6(13) - 4.32e+06 B21(11) + 4.32e+06 B48(2) - I77(14)
   + I92(12) >= -8.637739e+06
 c117: - 4.32e+06 B6(13) - 4.32e+06 B23(11) - 4.32e+06 B49(2) + I77(14)
   - I94(12) >= -1.2958234e+07
 c118: - 4.32e+06 B6(13) - 4.32e+06 B23(11) + 4.32e+06 B49(2) - I77(14)
   + I94(12) >= -8.638557e+06
 c119: - 4.32e+06 B7(11) - 4.32e+06 B13(12) - 4.32e+06 B50(2) + I78(12)
   - I84(12) >= -1.2958187e+07
 c120: - 4.32e+06 B7(11) - 4.32e+06 B13(12) + 4.32e+06 B50(2) - I78(12)
   + I84(12) >= -8.63833e+06
 c121: - 4.32e+06 B7(11) - 4.32e+06 B16(12) - 4.32e+06 B51(2) + I78(12)
   - I87(12) >= -1.2956452e+07
 c122: - 4.32e+06 B7(11) - 4.32e+06 B16(12) + 4.32e+06 B51(2) - I78(12)
   + I87(12) >= -8.638087e+06
 c123: - 4.32e+06 B7(11) - 4.32e+06 B20(11) - 4.32e+06 B52(2) + I78(12)
   - I91(12) >= -1.2958048e+07
 c124: - 4.32e+06 B7(11) - 4.32e+06 B20(11) + 4.32e+06 B52(2) - I78(12)
   + I91(12) >= -8.638554e+06
 c125: - 4.32e+06 B8(7) - 4.32e+06 B11(8) - 4.32e+06 B53(2) + I79(8)
   - I82(8) >= -1.2956133e+07
 c126: - 4.32e+06 B8(7) - 4.32e+06 B11(8) + 4.32e+06 B53(2) - I79(8)
   + I82(8) >= -8.638499e+06
 c127: - 4.32e+06 B9(11) - 4.32e+06 B12(12) - 4.32e+06 B54(2) + I80(12)
   - I83(12) >= -1.2955337e+07
 c128: - 4.32e+06 B9(11) - 4.32e+06 B12(12) + 4.32e+06 B54(2) - I80(12)
   + I83(12) >= -8.637863e+06
 c129: - 4.32e+06 B9(11) - 4.32e+06 B17(12) - 4.32e+06 B55(2) + I80(12)
   - I88(12) >= -1.295703e+07
 c130: - 4.32e+06 B9(11) - 4.32e+06 B17(12) + 4.32e+06 B55(2) - I80(12)
   + I88(12) >= -8.638474e+06
 c131: - 4.32e+06 B9(11) - 4.32e+06 B22(11) - 4.32e+06 B56(2) + I80(12)
   - I93(12) >= -1.2958467e+07
 c132: - 4.32e+06 B9(11) - 4.32e+06 B22(11) + 4.32e+06 B56(2) - I80(12)
   + I93(12) >= -8.638527e+06
 c133: - 4.32e+06 B10(12) - 4.32e+06 B15(12) - 4.32e+06 B57(2) + I81(11)
   - I86(11) >= -1.295812e+07
 c134: - 4.32e+06 B10(12) - 4.32e+06 B15(12) + 4.32e+06 B57(2) - I81(11)
   + I86(11) >= -8.638034e+06
 c135: - 4.32e+06 B10(12) - 4.32e+06 B19(11) - 4.32e+06 B58(2) + I81(11)
   - I90(11) >= -1.2956329e+07
 c136: - 4.32e+06 B10(12) - 4.32e+06 B19(11) + 4.32e+06 B58(2) - I81(11)
   + I90(11) >= -8.63811e+06
 c137: - 4.32e+06 B12(12) - 4.32e+06 B17(12) - 4.32e+06 B59(2) + I83(12)
   - I88(12) >= -1.2956931e+07
 c138: - 4.32e+06 B12(12) - 4.32e+06 B17(12) + 4.32e+06 B59(2) - I83(12)
   + I88(12) >= -8.635543e+06
 c139: - 4.32e+06 B12(12) - 4.32e+06 B22(11) - 4.32e+06 B60(2) + I83(12)
   - I93(12) >= -1.2957936e+07
 c140: - 4.32e+06 B12(12) - 4.32e+06 B22(11) + 4.32e+06 B60(2) - I83(12)
   + I93(12) >= -8.635535e+06
 c141: - 4.32e+06 B13(12) - 4.32e+06 B16(12) - 4.32e+06 B61(2) + I84(12)
   - I87(12) >= -1.2957018e+07
 c142: - 4.32e+06 B13(12) - 4.32e+06 B16(12) + 4.32e+06 B61(2) - I84(12)
   + I87(12) >= -8.637819e+06
 c143: - 4.32e+06 B13(12) - 4.32e+06 B20(11) - 4.32e+06 B62(2) + I84(12)
   - I91(12) >= -1.295836e+07
 c144: - 4.32e+06 B13(12) - 4.32e+06 B20(11) + 4.32e+06 B62(2) - I84(12)
   + I91(12) >= -8.638218e+06
 c145: - 4.32e+06 B14(14) - 4.32e+06 B18(14) - 4.32e+06 B63(2) + I85(14)
   - I89(14) >= -1.2956951e+07
 c146: - 4.32e+06 B14(14) - 4.32e+06 B18(14) + 4.32e+06 B63(2) - I85(14)
   + I89(14) >= -8.638168e+06
 c147: - 4.32e+06 B14(14) - 4.32e+06 B21(11) - 4.32e+06 B64(2) + I85(14)
   - I92(12) >= -1.2958404e+07
 c148: - 4.32e+06 B14(14) - 4.32e+06 B21(11) + 4.32e+06 B64(2) - I85(14)
   + I92(12) >= -8.638481e+06
 c149: - 4.32e+06 B14(14) - 4.32e+06 B23(11) - 4.32e+06 B65(2) + I85(14)
   - I94(12) >= -1.2958436e+07
 c150: - 4.32e+06 B14(14) - 4.32e+06 B23(11) + 4.32e+06 B65(2) - I85(14)
   + I94(12) >= -8.638406e+06
 c151: - 4.32e+06 B15(12) - 4.32e+06 B19(11) - 4.32e+06 B66(2) + I86(11)
   - I90(11) >= -1.2956966e+07
 c152: - 4.32e+06 B15(12) - 4.32e+06 B19(11) + 4.32e+06 B66(2) - I86(11)
   + I90(11) >= -8.638465e+06
 c153: - 4.32e+06 B16(12) - 4.32e+06 B20(11) - 4.32e+06 B67(2) + I87(12)
   - I91(12) >= -1.2958188e+07
 c154: - 4.32e+06 B16(12) - 4.32e+06 B20(11) + 4.32e+06 B67(2) - I87(12)
   + I91(12) >= -8.636949e+06
 c155: - 4.32e+06 B17(12) - 4.32e+06 B22(11) - 4.32e+06 B68(2) + I88(12)
   - I93(12) >= -1.2958511e+07
 c156: - 4.32e+06 B17(12) - 4.32e+06 B22(11) + 4.32e+06 B68(2) - I88(12)
   + I93(12) >= -8.637063e+06
 c157: - 4.32e+06 B18(14) - 4.32e+06 B21(11) - 4.32e+06 B69(2) + I89(14)
   - I92(12) >= -1.2958498e+07
 c158: - 4.32e+06 B18(14) - 4.32e+06 B21(11) + 4.32e+06 B69(2) - I89(14)
   + I92(12) >= -8.636888e+06
 c159: - 4.32e+06 B18(14) - 4.32e+06 B23(11) - 4.32e+06 B70(2) + I89(14)
   - I94(12) >= -1.2958274e+07
 c160: - 4.32e+06 B18(14) - 4.32e+06 B23(11) + 4.32e+06 B70(2) - I89(14)
   + I94(12) >= -8.636959e+06
 c161: I71(11) >= 0
 c162: I72(12) >= 0
 c163: I73(12) >= 0
 c164: I74(14) >= 0
 c165: I75(8) >= 0
 c166: I76(11) >= 0
 c167: I77(14) >= 0
 c168: I78(12) >= 0
 c169: I79(8) >= 0
 c170: I80(12) >= 0
 c171: - 2880 B10(12) + I81(11) >= 0
 c172: - 2880 B11(8) + I82(8) >= 0
 c173: - 2880 B12(12) + I83(12) >= 0
 c174: - 2880 B13(12) + I84(12) >= 0
 c175: - 2880 B14(14) + I85(14) >= 0
 c176: - 1440 B15(12) + I86(11) >= 0
 c177: - 1440 B16(12) + I87(12) >= 0
 c178: - 1440 B17(12) + I88(12) >= 0
 c179: - 1440 B18(14) + I89(14) >= 0
 c180: I90(11) >= 0
 c181: I91(12) >= 0
 c182: I92(12) >= 0
 c183: I93(12) >= 0
 c184: I94(12) >= 0
 c185: - 1440 B4(7) - 1440 B9(11) - 1440 B14(14) - 2880 B18(14)
   - 1440 B23(11) - I75(8) - I80(12) - I85(14) - I89(14) - I94(12) + I95(1)
   = -103680
Bounds
Binaries
 B0(11) B1(11) B2(11) B3(13) B4(7) B5(11) B6(13) B7(11) B8(7) B9(11)
 B10(12) B11(8) B12(12) B13(12) B14(14) B15(12) B16(12) B17(12) B18(14)
 B19(11) B20(11) B21(11) B22(11) B23(11) B24(2) B25(2) B26(2) B27(2) B28(2)
 B29(2) B30(2) B31(2) B32(2) B33(2) B34(2) B35(2) B36(2) B37(2) B38(2)
 B39(2) B40(2) B41(2) B42(2) B43(2) B44(2) B45(2) B46(2) B47(2) B48(2)
 B49(2) B50(2) B51(2) B52(2) B53(2) B54(2) B55(2) B56(2) B57(2) B58(2)
 B59(2) B60(2) B61(2) B62(2) B63(2) B64(2) B65(2) B66(2) B67(2) B68(2)
 B69(2) B70(2)
Generals
 I71(11) I72(12) I73(12) I74(14) I75(8) I76(11) I77(14) I78(12) I79(8)
 I80(12) I81(11) I82(8) I83(12) I84(12) I85(14) I86(11) I87(12) I88(12)
 I89(14) I90(11) I91(12) I92(12) I93(12) I94(12) I95(1)
End
